8681
5932
4781
9527
2251
9333
8882
9590
8388
1760
1558
7093
8415
6487
5194
6900
1409
624
9664
5356
9118
948
4145
7189
635
3729
5206
3656
1716
480
9518
6550
5799
2701
8059
4490
6024
934
1960
2611
9066
1656
8279
9077
5979
713
5963
5877
763
6580
